#######################################
### Exact MIP solver for the HHCRSP ###
#######################################
-- Instance file: new-instances/HHCRSP_300_60_77_0.8_C_RC.txt
-- Max threads: 4
-- Time limit: 999999 seconds
-- Use initial solution: No
Trivial flow violations prevented generating 1194986 variables.
Version identifier: 20.1.0.0 | 2020-11-10 | 9bedb6d68
CPXPARAM_Threads                                 4
CPXPARAM_TimeLimit                               999999
Parallel mode: deterministic, using up to 4 threads for concurrent optimization:
 * Starting dual Simplex on 1 thread...
 * Starting Barrier on 3 threads...
Tried aggregator 1 time.
LP Presolve eliminated 49110 rows and 11852 columns.
Reduced LP has 1374844 rows, 1303408 columns, and 32777081 nonzeros.
Presolve time = 36.74 sec. (7120.15 ticks)
Symmetry aggregator did 2259439 additional substitutions.

Iteration log . . .
Iteration:     1   Dual objective     =             0.000000
Iteration:  1327   Dual objective     =           431.333333

Dual crossover.
  Dual:  Fixing 2100 variables.
     2099 DMoves:  Infeasibility  1.86417548e-12  Objective  4.32333333e+02
        0 DMoves:  Infeasibility  8.07465206e-13  Objective  4.32333333e+02
  Dual:  Pushed 35, exchanged 2065.
  Primal:  Fixing 1652 variables.
     1651 PMoves:  Infeasibility  5.55111512e-17  Objective  4.32333333e+02
        0 PMoves:  Infeasibility  8.32667268e-17  Objective  4.32333333e+02
  Primal:  Pushed 1482, exchanged 170.

Dual simplex solved model.


Solution status from MIP model:
-- Processing time: 60.031 sec.
-- Memory used: 1225.25 MB
-- Best bound: inf
-- Obj value: 432.333
-- Gap: inf%
-- Total distance: 1297
-- Total tardiness: 0
-- Largest tardiness: 0
